# Word Frequency   
   1 "atrial
   1 "dub".
   1 "lub".
   1 (1%
   1 (150-lb)
   1 (2.5 in)
   1 (3.5 in)
   1 (5
   1 (5 in)
   1 (99%)
   1 (9–12 oz).
   1 (ach)
   2 (also
   1 (atrial
   1 (atrioventricular
   1 (av)
   1 (bpm)
   1 (bpm).
   1 (co)
   1 (cvd)
   1 (diastole),
   1 (diastole).
   1 (dividing
   1 (early
   1 (edv)
   1 (esv),
   1 (flaps
   1 (hr),
   1 (hypercalcemia)
   1 (its
   1 (or
   1 (regurgitation)
   2 (sa)
   1 (start
   1 (stenosis),
   1 (stroke
   1 (sv),
   1 (tendinous
   2 (the
   1 (though
   1 (tricuspid,
   1 (via
   2 (which
   1 (±25)
   1 +5
   2 -
   1 .
   1 1)
   1 10
   4 100
   1 120
   1 12 cm
   1 145
   1 150bpm
   1 15–20
   1 165–185
   1 185-195
   2 20
   1 200
   1 2008.
   2 20–30
   1 22
   1 220
   1 250–350
   1 25 mm
   1 28
   1 3.3
   1 30%
   2 30–40
   1 4.0–8.0
   1 40%.
   1 40–60
   1 5.25
   1 50
   1 55–100
   1 55–70
   1 58
   1 6)
   1 60-100
   1 60bpm.
   1 60–100
   1 6 cm
   1 70
   1 70-kg
   2 70–80
   1 72
   1 75
   1 75–80
   1 7th
   2 8
   1 80
   1 80–100
   1 8 cm
   1 9
   1 9.2
   1 9th
   3 =
  97 a
   3 ability
   1 abnormal
   4 about
   2 above
   1 absolute
   1 accelerates
   1 acceleration
   1 accommodate
   1 accordingly,
   1 accounted
   2 accounts
   1 acetylcholine
   1 achieved
   1 acidosis,
   1 across
   1 act
   1 acted
   4 action
   1 active
   1 actively
   2 activity
   1 activity,
   2 acts
   3 addition
   5 additional
   1 adequate
   1 adolescence.
   1 adrenal
   3 adult
   1 aerobic
   1 affect
   6 after
   4 afterload
   1 afterload.
   1 again
   1 again.
   2 against
   2 age
   1 age.
   1 agents.
   1 alignment
   1 alive,
   5 all
   1 allow
   1 allowed
   4 allowing
   1 allows
   1 alone.
   1 along
  32 also
   1 also,
   1 altering
   3 although
   2 among
   4 amount
  25 an
   1 anastomose,
   1 anchorage
 257 and
   1 animals,
   2 another
   4 anterior
   1 anterior,
   7 any
   9 aorta
   1 aorta.
   4 aortic
   1 aortic,
   1 apex
   1 apex,
   2 apex.
   1 appendage
   1 appendage,
   2 appendage.
   1 appendages,
   1 approaches
  16 approximately
  64 are
   1 are,
   1 areas,
   1 areolar
   1 arises
   9 around
   5 arteries
   1 arteries,
   2 arteries.
   1 arteriosus
   1 arteriosus,
   1 arteriosus.
   7 artery
   1 artery.
   1 artery;
   1 articulation
  50 as
   1 as,
   1 assessing
   1 assists
   1 associated
   1 assume
  23 at
   3 athletes
   1 athlete’s
  26 atria
   4 atria,
   3 atria.
   1 atria;
  16 atrial
  14 atrioventricular
  25 atrium
   7 atrium,
   5 atrium.
   1 attach
   5 attached
   2 attaches
   1 attributable
   1 audible
   1 auricle,
   1 autonomic
   2 autorhythmicity
   1 autorhythmicity,
   5 av
   1 average
   1 away
   1 bachmann's
  10 back
   1 back.
   2 backflow
   1 backflow,
   2 backflow.
   1 backwards
   1 bainbridge
   2 balance
   2 band
   1 band.
   4 baroreceptor
   4 baroreceptors
   1 baroreceptors,
   1 basal
   5 base
   1 base,
   2 bases
   1 basis,
  22 be
   2 beat
   2 beating
   9 beats
   2 because
   1 become
   1 becomes
   2 been
   3 before
   1 beginning
   5 begins
   1 behind
   4 being
   3 below
   1 benign
   1 beta
   1 beta–1
  14 between
   2 bicuspid
   1 bicuspid)
   1 bicuspid,
   1 binds
   1 birds
   1 birth,
   2 birth.
   1 block
   1 blockage
   1 blockage.
   1 blocked,
   1 blockers
   1 blockers.
  79 blood
   3 blood,
   4 blood.
   1 blown
   1 bodies,
   8 body
   1 body,
   5 body.
  15 both
   1 both)
   1 boundary
   6 bpm
   4 bpm.
   1 bradycardia.
   5 branches
   1 branches,
   1 breastbone
   1 broad
   1 built
   2 bulbus
   1 bulk
   6 bundle
   1 bundle),
   1 bundle.
   8 but
  44 by
   1 bypass
   4 ca2+
  12 calcium
   1 calcium,
   3 calculate
   1 calculating
  14 called
  23 can
   2 cannot
   1 capability
   2 capable
   2 capacity
   2 capillaries
   1 capillaries,
   1 capsules,
   7 carbon
  48 cardiac
   2 cardioaccelerator
   1 cardiogenic
   1 cardiologists,
   6 cardiomyocytes
   1 cardiomyocytes.
   6 cardiovascular
   1 carefully
   2 carneae,
   1 carotid
   1 carried
   1 carries
   1 carry
   1 carry.
   1 cartilage.
   2 cartilages.
   2 case,
   2 cases
   1 catheter,
   3 cause
   2 causes
   3 cava
   2 cava.
   3 cavae
   3 cavae,
   1 cavity,
   1 cavity.
   5 cell
   1 cell,
   1 cell.
   1 cell:
  20 cells
   1 cells)
   2 cells,
   5 cells.
   2 center
   3 centers
   1 central
   4 centres
   1 certain
   1 cervical
   2 chamber
   1 chamber,
   7 chambers
   3 chambers,
   4 chambers.
   1 chambers:
   1 channel
   7 channels
   1 channels,
   1 charge
   1 charged
   1 chemical
   1 chemoreceptors,
   1 chest,
   1 chest.
   1 children,
   1 cholesterol,
   6 chordae
   1 circuit
   2 circuit.
   1 circuit;
   1 circuits
  13 circulation
   2 circulation,
   6 circulation.
   1 circulation−where
   2 circulatory
   5 close
   1 close.
   1 closed,
   1 closes
   3 closing
   1 cluster
   2 co
   2 collagen
   2 collagenous
   1 collect
   1 collection
   1 collects
   1 column,
   1 combine
   1 combined
   1 common
   1 commonly
   1 comparative
   1 compared
   1 compartment
   1 complete
   1 completed
   1 complex
   1 complex,
   1 complex.
   2 component
   2 components
   1 components,
   2 composed
   2 concentrations
   1 conception
   3 condition
   1 conduct
   3 conducting
  12 conduction
   1 conduction.
   6 conductive
   2 connect
   3 connected
   6 connective
   2 considerably
   1 consisting
   5 consists
   1 contain
   2 contains
   1 continues
   3 continuous
   1 continuously
   4 contract
   3 contract,
   1 contract.
   1 contractibility.
   3 contractile
   1 contractility
   1 contractility),
   2 contractility,
   4 contractility.
   2 contracting.
  13 contraction
   3 contraction,
   6 contraction.
   3 contractions
   1 contractions.
   1 contractive
   1 contracts
   3 contracts,
   1 contracts.
   1 contrast
   1 contributes
   2 control
   1 control,
   1 controlled
   1 controls
   1 coordinated
   1 cordis
   1 cordis,
   1 cords),
  19 coronary
   1 correct
   1 correspond
   1 cortex
   3 costal
   1 could
   1 counted.
   1 counterparts
   2 covered
   1 create
   1 created
   2 creates
   3 critical
   1 crosses
   1 crown-rump
   2 crucial
   1 cusp.
   7 cusps
   1 cusps,
   2 cusps.
   2 cvd
   3 cycle
   2 cycle,
   2 cycle.
   1 cycles
   1 cyclist)–for
   1 damage
   1 damage.
   1 dangerous
   1 day,
   2 days
   1 days,
   1 de-oxygenated
   2 death
   1 death.
   1 deaths
   1 decelerate,
   4 decrease
   1 decrease,
   2 decreases
   1 decreases,
   1 decreasing
   3 deep
   1 deeper
   1 defects.
   1 definition,
   2 deflected
   1 delay
   1 delicate
   1 delivers
   2 demonstrate
   2 dense
   3 deoxygenated
   1 dependent
   2 depending
   3 depolarization
   1 depolarization).
   2 depolarization,
   1 depolarization.
   1 depolarizes
   1 depolarizing
   2 depression
   1 derives
   2 described
   1 described,
   1 describes
   1 despite
   1 determines
   5 develop
   3 developed
   2 development
   1 development.
   1 diabetes
   1 diagnosis
   1 diameter
   3 diaphragm
   2 diastole
   1 diastole,
   3 diastole.
   2 diastolic
   4 difference
   1 difference:
   4 different
   1 differentiates
   1 diffusion.
   1 digoxin,
   5 dioxide
   2 dioxide.
   1 direction,
   5 directly
   1 disappears
   1 discharging
   1 disease
   2 diseases
   1 dish
   1 disorders,
   1 distinct
   1 distribution
   1 divert
   1 divide
   2 divided
   3 do
   1 done
   2 double
   2 drain
   4 drains
   2 drugs
  10 due
   1 duration
  11 during
  12 each
   1 ear-shaped
   3 early
   1 easily,
   1 ecg
   1 ecg.
   1 echocardiogram
   2 edv
   2 edv,
   2 edv.
   1 effectively
   1 effects
   1 efficiency
   1 efficient
   1 efficiently
   1 ehr(0.3)+6
   3 either
   1 ejected
   4 ejection
   2 ejects
   1 elastic
   2 electric
   5 electrical
   1 electricity.
   1 elegant
   1 embryo
   1 embryogenesis.
   5 embryonic
   3 empties
   1 empty
   1 enable
   1 enables
   1 enabling
   1 enclose
   2 enclosed
   1 encloses
   9 end
   1 endocardial
   2 endocardium
   2 endocardium,
   3 endocardium.
   2 endocrine
   1 endothelial
   2 endothelins
   2 endothelium
   1 endothelium,
   1 endothelium.
   2 ends
   1 endurance
   1 enough
   2 ensure
   1 enter
   2 enters
   1 entire
   1 environment
   2 epicardium
   2 epicardium,
   1 epicardium;
   1 epinephrine
   1 epinephrine,
   2 epithelium
   1 equation:
   2 essential
   2 establish
   1 established
   1 establishes
   1 esv.
   1 evaluated
   1 eventually
   2 every
   1 evidence
   1 evident
   1 example
   1 exceptionally
   1 excess
   2 exchange
   2 exchanged
   4 exercise
   2 exercise,
   1 exercise.
   1 exhalation.the
   1 exit
   1 expressed
   1 expressing
   1 extends
   1 facilitate
   1 factor
   8 factors
   1 fall
   1 far
   3 faster
   2 fastest
   1 features
   1 features,
   1 felt
   1 female
   3 fetal
   3 few
   8 fibers
   2 fibers,
   2 fibers.
   1 fibre.
   1 fibres
   4 fibrous
   2 fifth
   3 figure
   1 fill
   2 filled
   4 filling
   3 filling.
   1 fills
   2 fire
   7 firing
   1 firing,
   3 first
   1 fish
   1 fist:
   1 fit
   1 fitness
   1 five
   1 fixed
   1 flap
   1 flaps
  11 flow
   2 flow.
   1 flow;
   3 flowing
  10 flows
   2 fluid
   2 fluid,
   1 fluid.
   1 fluids
   1 fluids,
   1 fold
   2 followed
   1 follows
  22 for
   3 foramen
   4 force
   2 forced
  10 form
   1 formation
   1 forming
   2 forms
   1 formula
   1 forwards,
   2 fossa
   6 four
   3 fourth
   1 fraction
   2 fraction,
   1 fractions
   1 framework
   1 frank-starling
   2 friction
  63 from
   4 front
   1 fully
   7 function
   1 function,
   1 functional
   1 functions
   2 further
   1 further,
   1 fuse
   2 fused
   2 gallop
   1 gallop.
   3 ganglia
   1 gas
   1 gases
   1 gastrointestinal
   1 generally
   2 generate
   1 generated
   4 generating
   2 give
   4 gives
   1 globally
   1 good
   1 graded
   2 gradually
   1 grams
   5 great
   8 greater
   1 grooves
   1 grouping
   1 growth
   1 happens
  12 has
  13 have
   1 having
   1 head
   1 health.
   2 healthy
   1 heard
 107 heart
   3 heart's
   1 heart),
   9 heart,
   1 heart-sounds
  13 heart.
   1 heart;
   1 heartbeat,
   1 heartrate.
   2 hearts
   1 heart’s
   1 help
   1 helping
   3 here
   1 here.
   5 high
   5 higher
   1 highest
   2 his
   1 hold
   1 homeostasis
   1 homeostasis,
   1 homeostatic
   1 hormones;
   2 how
   3 however,
   2 hr
   2 hr.
   1 humans
   1 humans,
   1 hyperkalemia
   1 hypertrophied
   1 hypoxia,
   1 hypoxia;
   2 if
   1 immediately
   2 impact
   2 important
   6 impulse
   2 impulse,
   1 impulse.
   6 impulses
 100 in
   4 include
   1 include:
   2 includes
   4 including
  14 increase
   1 increase.
   9 increased
   3 increases
   1 increases,
   2 increasing
   1 independently
   1 indicate
   2 indicates
   1 individual
   2 individual,
   1 individuals,
   1 individuals.
   1 indurain,
   1 inertia
   1 infarction
   8 inferior
   1 inflamed
   1 inflow
   1 influenced
   1 influencing
   4 influx
   2 inherent
   1 inhibited
   1 inhibiting
   1 inhibitor
   2 initial
   2 initially
   1 initially,
   4 initiate
   2 inner
   1 inner,
   1 innermost
   1 innervated
   2 inotrope.
   1 inotropes
   1 inotropes,
   2 inotropic
   1 input
   1 inside
   1 inspiration
   1 insufficiency
   2 interatrial
   1 interconnections
   1 interior
   2 internal
   1 interrupted
   5 interventricular
  51 into
   1 invasive
   1 involved
   1 involved,
   1 involved.
   1 involves
   4 ion
   1 ionic
   9 ions
   1 ions.
   1 irregular,
 122 is
   1 is.
   1 is:
  33 it
   2 it,
   5 its
   1 itself.
   2 joined
   1 joint
   2 junction
   4 just
   3 k+
   1 kept
   1 kick,"
   1 kidneys.
   1 kinds.
  10 known
   1 l/min,
   1 l/min.
   1 large
   1 largely
   1 larger
   1 largest
   1 last
   1 lasts
   4 layer
   3 layers
   1 layers.
   3 layers:
   1 leaflets),
  49 left
   1 left.
   2 length
   1 length,
   1 lengthens,
   2 less
   3 level
   1 level,
   1 levels
   1 levels,
   1 lie
   3 lies
   1 ligand-gated
   3 like
   1 limbic
   1 limited
   1 linear
   1 linearly
   1 lined
   1 lines
   1 lining
   1 lining,
   1 listen
   1 listening
   2 liver
   1 lmp
   2 lmp).
   8 located
   1 located.
   1 locations,
   1 long
   1 loose,
   1 loss
   1 loudest,
   1 low
  10 lower
   1 lower.
   1 lowers
   1 lowest
   1 lubricating
   2 lung
   2 lung.
   4 lungs
   2 lungs.
   1 lungs.this
   1 macroscopic.
   6 made
   2 main
   2 maintain
   2 maintains
   6 major
   3 make
   1 male
   1 mammals
   3 many
   1 marathon
   1 mass
   1 maturity
   2 maximum
   8 may
   3 mean
   2 means
   2 measured
   1 measurement
   1 measures
   2 mechanism
   1 medial
   1 medial,
   3 mediastinum
   1 medications
   1 medicine
   1 medulla
   4 membrane
   3 membranes
   1 membranes,
   1 menstrual
   1 mental
   1 mesenchyme
   1 mesothelium
   1 mesothelium,
   5 metabolic
   1 metabolism
   1 metabolized
   1 method.
   1 methods
   1 microscopic.
   4 middle
   1 middle,
   1 miguel
   1 minimum
   5 minute
   2 minute,
   6 minute.
   4 mitral
   2 ml.
   2 moderator
   1 modified
   1 modulated
   2 monitor
   1 month
   8 more
   6 most
   1 mother’s
   3 move
   2 movement
   1 movements
   2 moves
   1 ms
   5 much
   1 multiply
   1 murmur
   1 murmur,
   3 murmurs
  16 muscle
   2 muscle,
   4 muscle.
  10 muscles
   3 muscles,
   4 muscles.
   3 muscular
   1 musical
   2 must
   1 mv
   1 mv,
   2 mv.
   2 myocardial
   8 myocardium
   3 myocardium,
   2 myocardium.
   1 myocardium;
   1 myofibrils
   1 myofilaments
   2 na+
   1 name,
   1 narrowing
   4 near
   3 nearly
   1 necessarily
   2 need
   3 needed
   3 negative
   2 nerve
   1 nerve.
   4 nerves
   1 nerves,
   1 nerves.
   4 nervous
   1 neural
   1 neuromuscular
   1 neurons,
   1 neurons.
   1 neurotransmitter
   1 newborn
   1 ninth
   3 no
   1 nodal
  13 node
   6 node,
   2 node.
   1 nodes,
   1 noradrenaline)
   3 norepinephrine
   1 norepinephrine,
   1 norepinephrine.
   6 normal
   9 normally
   7 not
   2 number
   1 numbers,
   1 numerous
   4 nutrients
   1 nutrients,
   1 oblongata.
   1 occasionally
   1 occur
   1 occur.
   3 occurs
   1 occurs;
 241 of
   1 off
   2 offset
   1 often
  12 on
   1 once
   6 one
   1 ongoing
   2 only
   2 open
   3 open,
   7 opening
   1 opens
   1 operate
   1 opposite
  26 or
   1 order
   2 organ
   1 organs
   1 organs,
  12 other
   1 others.
   1 otherwise
   3 out
   2 outer
   1 outflux
   2 output
   1 output.
   1 outputs
   1 oval-shaped
   2 ovale
   1 ovale.
   1 ovalis
   1 ovalis,
   1 over
   1 overweight,
   3 own
  10 oxygen
   1 oxygen,
   3 oxygenated
   1 p
   1 pace,
   3 pacemaker
   1 pacemaker,
   1 pacemaker.
   2 paired
   9 papillary
  11 parasympathetic
   1 parietal
   7 part
   1 partially
   1 particularly
   2 parts
   1 parts.
   1 pass
   2 passes
   1 passing
   1 passive
   2 passively
   1 pathological
   1 patient.
   5 pattern
   1 pattern.
   1 patterns
   1 pause
   2 peaks
   2 pectinate
  12 per
   6 percent
   1 percent,
   1 percent.
   1 percentage.
   1 pericardiac
   6 pericardial
   1 pericarditis
   6 pericardium
   6 pericardium,
   3 pericardium.
   3 period
   3 period,
   1 period.
   1 person
   1 petri
   1 ph
   4 phase
   1 phase.
   1 phases
   1 phonocardiograms
   3 physical
   2 physiology
   1 pinecone,
   1 place
   2 placed
   1 places
   1 plane.
   1 plate
   2 plateau
   4 play
   1 plays
   1 pleura,
   1 plexus
   1 plexus.
   4 plus
   1 pocket-like
   2 point,
   1 poorly
   3 portion
   2 position
   1 positions
   2 positive
   1 positively
   4 posterior
   2 posterior,
   2 potassium
   1 potassium,
   1 potent
   6 potential
   1 potential.
   2 potentials
   1 precise
   1 predominates
   4 preload
   1 preload,
   1 preload.
   1 prenatal
   3 prepotential
   1 presence
   2 present
   1 presents
   1 pressing
  15 pressure
   3 pressure,
   1 pressure.
   2 pressures
   3 prevent
   1 prevented
   4 preventing
   3 prevents
   1 previously
   2 primarily
   1 primary
   5 primitive
   1 primum
   2 prior
   1 problems.
   1 procedure
   1 proceed
   2 process
   1 processes,
   1 produced
   2 products
   1 progressively
   1 projecting
   1 prolonged
   1 prominent
   2 propel
   1 properly.
   1 proportional
   1 proprioreceptors
   1 proprioreceptors,
   1 protective
   1 protects
   1 protein
   1 provide
   2 provides
   1 providing
  35 pulmonary
  12 pump
   7 pumped
   4 pumping
   9 pumps
   5 purkinje
   1 pushed
   1 quadruple
   1 quarters
   1 quickly
   1 quietest,
   1 radial
   5 range
   1 ranges
   2 rapid
   1 rapidly
  28 rate
   2 rate,
   3 rate.
  12 rates
   1 rather
   1 reach
   4 reaches
   1 reaching
   2 receive
   5 receives
   2 receiving
   1 receptor.
   4 receptors
   2 record
   1 recorded
   1 reduce
   1 reduces
   1 refer
   6 referred
   1 reflecting
   1 reflex
   2 reflex,
   1 reflex.
   1 reflexes.
   1 refractory
   1 regarded
   1 region.
   2 regions
   1 regions,
   1 regression
   3 regulate
   1 regulated
   1 regulates
   1 regulating
   1 regulation
   1 regulatory
   2 regurgitation
   2 reinforced
   1 reinforces
   1 relating
   2 relationship
   1 relative
   1 relatively
   4 relaxation
   3 relaxed
   2 relaxed,
   1 relaxes
   1 relaxing
   3 release
   1 released
   1 remainder
   2 remaining
   1 remnant
   1 remodelling
   1 removal
   1 remove
   1 removing
   2 repolarization
   1 repolarization.
   1 represent
   2 represented
   1 reptiles
   1 required
   1 reserve
   1 residual
   3 resistance
   1 resistance.
   2 respectively,
   1 respects
   1 respond
   1 responds
   2 response
   1 responses
   1 responsible
   2 rest
   1 rest.
   8 resting
   1 restore
   4 result
   3 resulting
   2 results
   1 reticulum.
   2 return
   1 returned
   4 returns
   4 rhythm
   1 rhythms.
   1 ribs
   1 richly
   2 ridges
   1 ridges,
  59 right
   1 right).
   1 right,
   1 rings
   2 rise
   1 rise,
   3 rises
   1 rises.
   1 risk
   3 role
   2 roles
   1 roles,
   1 roots
   2 rub
   1 runners
   1 s-shape
   1 s1
   1 s1,
   1 s2
   1 s2,
   1 s2.
   2 s3
   2 s4
  11 sa
   1 sac,
   2 sac.
   3 same
   1 sarcoplasmic
   1 says
   1 seal
   2 second
   1 seconds
   1 secrete
   1 secretes
   1 secretes,
   1 secretions
   1 seems
   2 seen
   7 semilunar
   1 sends
   1 sensory
   1 separate
   3 separated
   3 separates
   3 septa
   1 septa.
   2 septal
   7 septum
   2 septum,
   1 septum.
   3 series
   4 serous
   2 serve
   1 sets
   3 several
   1 sex,
   1 shape
   1 shortens
   1 shorter
   4 side
   1 sides
   2 signal
   4 similar
   2 similarly,
   3 simple
   1 simplest
   1 simply
   1 simultaneous
   5 since
   4 sinoatrial
  11 sinus
   1 sinus,
   3 sinus.
   1 sits
   1 situated
   3 size
   3 skeletal
   2 skeleton
   1 slight
   1 slight.
   1 slightly
   3 slow
   1 slower
   1 slowing
   1 slowly
   2 slows
   4 small
   4 smaller
   1 smoking,
   1 smooth,
   6 so
   5 sodium
   1 sodium;
   2 some
   4 sometimes
   7 sound
   3 sound,
   4 sounds
   2 sounds,
   1 sounds.
   1 space
   1 specialised
   5 specialized
   1 specialties
   1 specific
   1 speeding
   1 spiral
   1 splanchnopleuric
   1 split
   2 spontaneous
   3 spreading
   1 spreads
   2 squamous
   1 stable
   1 stage)
   2 start
   3 starts
   1 stated
   1 states
   1 stenotic
   2 sternum
   1 stethoscope
   1 stethoscope,
   1 stethoscope.
   1 stiff
   1 still
   1 still's
   2 stimulant
   2 stimulates
  15 stimulation
   1 stimulation,
   2 stimulation.
   2 stimuli
   1 stopping
   1 storage
   1 strands
   5 stretch
   1 stretch,
   1 stretches
   1 strings.
   8 stroke
   1 stroke.
   1 stronger
   1 stronger,
   3 structure
   1 structure;
   2 subsequent
   2 such
   2 sulci
   2 sulci.
   1 sulcus
   3 sulcus.
   1 superficial
   9 superior
   4 supplied
   3 supply
   1 supplying
   1 suppressing
   9 surface
   1 surface.
   3 surrounding
   1 surrounds
   7 sv
   1 sv)
   1 svs
   1 swirl
   1 swirling
  14 sympathetic
   1 symptoms
   1 syncytium,
   1 synthetic
   9 system
   1 system,
   6 system.
  12 systemic
   1 systems,
   2 systems.
   3 systole
   1 systole),
   3 systole,
   3 systole.
   5 systolic
   1 t1–t4)
   1 t5-t8.
   1 tail
   1 taper
   1 tapering
   1 temperature;
   1 temporarily
   2 tendinae
   2 tendineae
   1 tendineae,
   1 tendineae.
   1 tendons.
   5 tension
   1 term,
   1 terms
  14 than
  38 that
 849 the
  10 their
   1 them
   5 then
  10 there
   1 therefore,
  24 these
  12 they
   4 thicker
   1 thickest
   1 thickness.
   2 thin
   1 thin-walled,
   3 third
  33 this
   2 this,
   1 this.
   2 thoracic
   1 thorax.
  13 three
   1 threshold
  25 through
   1 throughout
   2 thus
   1 thyroid
   3 time
   1 time.
   1 times
   1 tip
   9 tissue
   1 tissue,
   2 tissue.
   1 tissues,
 162 to
   3 together
   2 together,
   1 together.
   1 too
   1 tough,
   4 toward
   2 trabeculae
   1 tract
   1 trained
   1 transmission
   1 transmit
   1 transmits
   3 transport
   1 transporting
   1 transports
   1 traveling
   1 treated
   5 tricuspid
   1 tricuspid,
   3 trigger
   1 triggered
   2 triggers
   2 troponin
   1 troughs
   1 true.
   3 truncus
   4 trunk
   1 trunk)
   2 trunk,
   3 trunk.
   2 tube
   1 tubes
   1 tubular
   1 turn
  25 two
   1 type
   2 types
   1 typical
   1 typically
   1 ultimately
   1 ultrasound.
   1 unable
   1 unconsciousness,
   1 undergo
   1 undergoes
   1 unidirectional
   1 unimpeded
   1 uninterrupted
   1 unique
   1 unlike
   1 unregulated,
   2 until
   7 up
   3 upon
   8 upper
   4 used
   4 using
   3 usually
   1 vagal
   3 vagus
   2 value
  10 valve
   3 valve,
   1 valve-cusps
   6 valve.
  13 valves
   5 valves,
   6 valves.
   1 valvular
   1 variables
   1 variables,
   4 various
   1 varying
   2 vascular
   2 vasoconstrictors
   1 vasodilators.
   2 vein
   1 vein.
   7 veins
   2 veins,
   3 veins.
   3 vena
   5 venae
   2 venosus
   1 venosus,
   1 venosus.
   8 venous
  31 ventricle
   5 ventricle,
   5 ventricle.
   2 ventricle;
  16 ventricles
   5 ventricles,
  10 ventricles.
  23 ventricular
   1 vertebrae
   1 vertebral
   3 very
   6 vessels
   2 vessels.
  11 via
   5 visceral
   1 visible.
   1 vital
   9 volume
   2 volume,
   7 volume.
   5 wall
   1 wall,
   2 wall.
   4 walls
   1 walls)
   3 waste
   2 wastes.
   1 wave
   3 way
   1 way,
   3 week
   1 week,
   1 week.
   4 weeks
   1 well
   1 well-trained
   3 were
  11 when
   4 where
  41 which
  12 while
   1 wide,
  14 will
  34 with
   7 within
   4 without
  13 would
   1 would.
   1 wrap
   1 x
   1 year
   1 –
   1 –40
   2 −60
